Tentando empacotar!
W 583 H 233 L 220
Item[0]:155, 50, 26
Item[1]:155, 50, 26
Item[2]:155, 50, 26
Item[3]:155, 50, 26
Item[4]:155, 50, 26
Item[5]:155, 50, 26
Item[6]:155, 50, 26
Item[7]:48, 42, 37
Item[8]:47, 134, 26
Item[9]:47, 134, 26
Item[10]:47, 134, 26
Item[11]:204, 174, 150
Item[12]:204, 174, 150
Item[13]:583, 20, 40
Item[14]:583, 20, 40
Item[15]:583, 20, 40
iniciando os testes...
Item alto: 8 
Item alto: 9 
Item alto: 10 
Item alto: 11 
Item alto e profundo: 11 
Item profundo: 11 
Item alto: 12 
Item alto e profundo: 12 
Item profundo: 12 
Item largo: 13 
Item largo: 14 
Item largo: 15 
 ! --------------------------------------------------- CP Optimizer 22.1.1.0 --
 ! Satisfiability problem - 6 variables, 3 constraints
 ! TimeLimit            = 600
 ! Workers              = 1
 ! Initial process time : 0.01s (0.01s extraction + 0.01s propagation)
 !  . Log search space  : 45.7 (before), 45.7 (after)
 !  . Memory usage      : 267.1 kB (before), 267.1 kB (after)
 ! Using sequential search.
 ! ----------------------------------------------------------------------------
 !               Branches  Non-fixed            Branch decision
 *                      7  0.01s                154  = _int0
 ! ----------------------------------------------------------------------------
 ! Search completed, 1 solution found.
 ! ----------------------------------------------------------------------------
 ! Number of branches     : 7
 ! Number of fails        : 0
 ! Total memory usage     : 697.2 kB (653.5 kB CP Optimizer + 43.7 kB Concert)
 ! Time spent in solve    : 0.01s (0.01s engine + 0.01s extraction)
 ! Search speed (br. / s) : 700.0
 ! ----------------------------------------------------------------------------
=======SOLUCAO 2D=======
Item[0]:154 161
Item[1]:85 122
Item[2]:63 43
========================
 ! --------------------------------------------------- CP Optimizer 22.1.1.0 --
 ! Satisfiability problem - 10 variables, 10 constraints
 ! TimeLimit            = 600
 ! Workers              = 1
 ! Initial process time : 0.01s (0.01s extraction + 0.00s propagation)
 !  . Log search space  : 79.5 (before), 79.5 (after)
 !  . Memory usage      : 299.7 kB (before), 299.7 kB (after)
 ! Using sequential search.
 ! ----------------------------------------------------------------------------
 !               Branches  Non-fixed            Branch decision
 *                     91  0.01s                  2  = _int1
 ! ----------------------------------------------------------------------------
 ! Search completed, 1 solution found.
 ! ----------------------------------------------------------------------------
 ! Number of branches     : 91
 ! Number of fails        : 40
 ! Total memory usage     : 764.0 kB (711.6 kB CP Optimizer + 52.4 kB Concert)
 ! Time spent in solve    : 0.01s (0.01s engine + 0.01s extraction)
 ! Search speed (br. / s) : 9100.0
 ! ----------------------------------------------------------------------------
=======SOLUCAO 2D=======
Item[0]:26 26
Item[1]:2 105
Item[2]:32 168
Item[3]:80 44
Item[4]:327 19
========================
 ! --------------------------------------------------- CP Optimizer 22.1.1.0 --
 ! Satisfiability problem - 4 variables, 1 constraint
 ! TimeLimit            = 600
 ! Workers              = 1
 ! Initial process time : 0.01s (0.01s extraction + 0.00s propagation)
 !  . Log search space  : 29.0 (before), 29.0 (after)
 !  . Memory usage      : 267.0 kB (before), 267.0 kB (after)
 ! Using sequential search.
 ! ----------------------------------------------------------------------------
 !               Branches  Non-fixed            Branch decision
 *                      5  0.01s                285  = _int0
 ! ----------------------------------------------------------------------------
 ! Search completed, 1 solution found.
 ! ----------------------------------------------------------------------------
 ! Number of branches     : 5
 ! Number of fails        : 0
 ! Total memory usage     : 694.8 kB (653.6 kB CP Optimizer + 41.2 kB Concert)
 ! Time spent in solve    : 0.01s (0.00s engine + 0.01s extraction)
 ! Search speed (br. / s) : 500.0
 ! ----------------------------------------------------------------------------
=======SOLUCAO 2D=======
Item[0]:285 21
Item[1]:39 58
========================
 ! --------------------------------------------------- CP Optimizer 22.1.1.0 --
 ! Satisfiability problem - 48 variables, 120 constraints
 ! TimeLimit            = 1800
 ! Workers              = 1
 ! Initial process time : 0.01s (0.01s extraction + 0.00s propagation)
 !  . Log search space  : 348.2 (before), 348.2 (after)
 !  . Memory usage      : 399.4 kB (before), 399.4 kB (after)
 ! Using sequential search.
 ! ----------------------------------------------------------------------------
 !               Branches  Non-fixed            Branch decision
                     1000         12        F    41  = _int47
 *                   1816  0.02s                  0  = _int21
 ! ----------------------------------------------------------------------------
 ! Search completed, 1 solution found.
 ! ----------------------------------------------------------------------------
 ! Number of branches     : 1816
 ! Number of fails        : 833
 ! Total memory usage     : 1.9 MB (1.6 MB CP Optimizer + 0.3 MB Concert)
 ! Time spent in solve    : 0.02s (0.01s engine + 0.01s extraction)
 ! Search speed (br. / s) : 181600.0
 ! ----------------------------------------------------------------------------
=======SOLUCAO 3D (FINAL)=======
Item[0]:0 0 77
Item[1]:428 0 40
Item[2]:428 45 0
Item[3]:0 158 194
Item[4]:428 95 0
Item[5]:29 0 194
Item[6]:190 0 194
Item[7]:0 0 40
Item[8]:316 0 40
Item[9]:390 0 176
Item[10]:285 45 0
Item[11]:49 50 0
Item[12]:379 58 26
Item[13]:0 25 0
Item[14]:0 0 0
Item[15]:0 0 103
================================
TIME: 0.024
STATUS: 1
Morrendo
